559, 0, 0, 56, 2
560, 0, 1, 72, 0
561, 0, 2, 44, 1
562, 0, 3, 61, 3
563, 1, 0, 49, 3
564, 1, 1, 70, 2
565, 1, 2, 86, 0
566, 1, 3, 82, 1
567, 2, 0, 92, 1
568, 2, 1, 43, 0
569, 2, 2, 82, 2
570, 2, 3, 47, 3
571, 3, 0, 38, 3
572, 3, 1, 91, 2
573, 3, 2, 90, 0
574, 3, 3, 59, 1
